p cnf 20 7
e 1 0
a 2 3 0
e 4 5 0
a 6 0
e 7 8 0
a 9 10 11 12 0
e 13 14 0
a 15 0
e 16 17 18 0
a 19 20 0
-8 18 -12 -6 0
12 1 -6 -10 0
-13 -12 0
6 -9 1 -13 0
-13 -16 -11 -4 -6 0
20 6 -10 16 0
4 16 19 13 -6 0
